p cnf 10 50
3 -5 4 0
-8 1 2 0
7 -10 4 0
-10 5 1 0
3 6 4 0
-8 6 -10 0
-9 -8 1 0
6 1 7 0
3 5 4 0
7 -2 6 0
7 -2 4 0
-4 9 1 0
-9 2 5 0
1 2 -10 0
-10 6 7 0
5 -10 2 0
-10 2 -6 0
2 -6 7 0
-10 5 3 0
2 7 4 0
7 -8 1 0
-3 7 5 0
-9 1 3 0
2 6 -9 0
4 -3 1 0
3 9 8 0
5 7 -9 0
1 7 2 0
7 -8 3 0
9 5 3 0
-10 7 2 0
-8 5 -9 0
9 3 8 0
6 3 9 0
-10 -2 1 0
7 9 1 0
-8 1 4 0
9 -3 -8 0
4 6 3 0
3 9 -2 0
4 3 9 0
-10 4 5 0
-6 1 -8 0
-7 1 -10 0
6 1 2 0
-10 1 9 0
3 -10 5 0
1 3 9 0
-3 -10 -9 0
-8 6 4 0
%
0